(set-info :origin "driver benchmark extracted from Microsoft SDV")
(set-logic HORN)
(declare-fun Proc27 (Int Int Int Bool Int) Bool)
(declare-fun Proc34 (Int Int Int Bool Int) Bool)
(declare-fun Proc9 (Int Int Int Bool Int Int Int) Bool)
(declare-fun Proc4 (Int Int Int Bool Int Int) Bool)
(declare-fun Proc33 (Int Int Int Bool Int) Bool)
(declare-fun Proc45 (Int Int Int Bool) Bool)
(declare-fun Proc46 (Int Int Int Bool Int Bool Int Int Int) Bool)
(declare-fun Proc21 (Int Int Int Bool Int Int) Bool)
(declare-fun Proc12 (Int Int Int Bool Int Int Int Int) Bool)
(declare-fun Proc13 (Int Int Int Bool Int Int Int Int) Bool)
(declare-fun Proc16 (Int Int Int Bool Int Int Int) Bool)
(declare-fun Proc39 (Int Int Int Bool) Bool)
(declare-fun Proc43 (Int Int Int Bool) Bool)
(declare-fun Proc0 (Int Int Int Bool Int) Bool)
(declare-fun Proc22 (Int Int Int Bool Int) Bool)
(declare-fun Proc30 (Int Int Int Bool Int) Bool)
(declare-fun Proc10 (Int Int Int Bool Int) Bool)
(declare-fun Proc17 (Int Int Int Bool Int Int Int) Bool)
(declare-fun Proc40 (Int Int Int Bool Int Int) Bool)
(declare-fun Proc7 (Int Int Int Bool Int Int Int) Bool)
(declare-fun Proc32 (Int Int Int Bool Int) Bool)
(declare-fun Proc25 (Int Int Int Bool Int) Bool)
(declare-fun Proc11 (Int Int Int Bool Int Int Int) Bool)
(declare-fun Proc41 (Int Int Int Bool Int Int Int Int Int Int) Bool)
(declare-fun Proc23 (Int Int Int Bool Int Int Int) Bool)
(declare-fun Proc20 (Int Int Int Bool) Bool)
(declare-fun Proc29 (Int Int Int Bool Int) Bool)
(declare-fun Proc5 (Int Int Int Bool Int Int) Bool)
(declare-fun Proc18 (Int Int Int Bool Int Int Int) Bool)
(declare-fun Proc36 (Int Int Int Bool Int) Bool)
(declare-fun Proc37 (Int Int Int Bool Int) Bool)
(declare-fun Proc38 (Int Int Int Bool Int) Bool)
(declare-fun Proc3 (Int Int Int Bool Int Int) Bool)
(declare-fun Proc31 (Int Int Int Bool Int) Bool)
(declare-fun Proc44 (Int Int Int Bool Int Int) Bool)
(declare-fun Proc35 (Int Int Int Bool Int) Bool)
(declare-fun Proc6 (Int Int Int Bool Int Int Int Int Int) Bool)
(declare-fun Proc15 (Int Int Int Bool Int Int) Bool)
(declare-fun Proc26 (Int Int Int Bool Int) Bool)
(declare-fun Proc42 (Int Int Int Bool) Bool)
(declare-fun Proc19 (Int Int Int Bool) Bool)
(declare-fun Proc28 (Int Int Int Bool Int) Bool)
(declare-fun Proc2 (Int Int Int Bool) Bool)
(declare-fun Proc14 (Int Int Int Bool Int Int Int) Bool)
(declare-fun Proc8 (Int Int Int Bool Int Int Int Int Int Int) Bool)
(declare-fun Proc24 (Int Int Int Bool Int Int Int Bool Int) Bool)
(declare-fun Proc1 (Int Int Int Bool Int Int Int Int) Bool)
(assert (forall ((A Int)
         (B Int)
         (C Int)
         (D Int)
         (E Int)
         (F Int)
         (G Int)
         (H Int)
         (I Bool))
  (let ((a!1 (and (or (= H 0) (not (= B 0))) (not (= B 0)))))
  (let ((a!2 (and (or (not (Proc0 F E D I G)) (= C 0) a!1) (or (= C 0) a!1))))
    (=> (not (or (not I) (= H 0) (= G 0) a!2)) (Proc1 F E D I H G A B))))))
(assert (forall ((A Int)
         (B Int)
         (C Int)
         (D Int)
         (E Int)
         (F Int)
         (G Int)
         (H Int)
         (I Bool)
         (J Int)
         (K Int)
         (L Int)
         (M Int)
         (N Int)
         (O Int)
         (P Int)
         (Q Int)
         (R Int)
         (S Int)
         (T Int)
         (U Int)
         (V Int)
         (W Int)
         (X Int)
         (Y Int)
         (Z Int)
         (A1 Int)
         (B1 Int)
         (C1 Int)
         (D1 Int)
         (E1 Int)
         (F1 Int))
  (let ((a!1 (not (and (= Z (- 1073741130)) (= Y Z))))
        (a!2 (not (and (= U D1) (= T W) (= S Y) (= R V))))
        (a!3 (not (and (= Q S) (= P T) (= O R) (= N U))))
        (a!5 (and (not (<= L (+ 1 M))) (not (<= L F1))))
        (a!8 (not (and (= H (- 1073741811)) (= Y H))))
        (a!13 (and (not (<= C (+ 1 D))) (not (<= C F))))
        (a!14 (not (and (= U A) (= T B) (= S G) (= R E)))))
  (let ((a!4 (or (not (and (= W F1) (= V E1)))
                 (not (Proc3 W V D1 I X 0))
                 a!2
                 a!3))
        (a!6 (or (not (= M F1))
                 (not a!5)
                 (not (Proc4 L E1 D1 I M K))
                 (not (and (= W L) (= V K)))
                 (not (Proc3 W V D1 I X 0))
                 a!2
                 a!3))
        (a!12 (or (not (and (= U D1) (= T F) (= S G) (= R E))) a!3))
        (a!15 (and (or (not (= A 1)) a!14 a!3) (or (= A 1) a!14 a!3))))
  (let ((a!7 (or (not (= Y 0)) (= X 0) (and a!4 a!6)))
        (a!16 (and a!12
                   (or (not (= D F))
                       (not a!13)
                       (not (Proc7 C E D1 I D B A))
                       a!15))))
  (let ((a!9 (or (= J 0) (and a!7 (or a!8 (= X 0) (and a!4 a!6))))))
  (let ((a!10 (or (= X 0)
                  (not (Proc5 F1 E1 D1 I X J))
                  (= J 0)
                  (and (or (= J 0) (and a!7 a!9)) a!7))))
  (let ((a!11 (or (= C1 0) (= A1 0) (and (or a!1 (= X 0) (and a!4 a!6)) a!10))))
  (let ((a!17 (and a!11 (or (not (Proc6 F1 E1 D1 I C1 X G F E)) a!16))))
  (let ((a!18 (not (or (not I) (not (Proc2 F1 E1 D1 I)) (= C1 0) (= B1 0) a!17))))
    (=> a!18 (Proc8 F1 E1 D1 I C1 X Q P O N))))))))))))
(assert (forall ((A Int)
         (B Int)
         (C Int)
         (D Int)
         (E Int)
         (F Int)
         (G Int)
         (H Int)
         (I Bool)
         (J Int)
         (K Int)
         (L Int)
         (M Int)
         (N Int)
         (O Int)
         (P Int)
         (Q Int)
         (R Int)
         (S Int)
         (T Int)
         (U Int)
         (V Int))
  (let ((a!1 (not (and (not (= U 0)) (= T (+ 20 U)) (Proc9 S R Q I T P O))))
        (a!2 (not (and (= H K) (= G L) (= F J))))
        (a!4 (and (not (<= D (+ 1 E))) (not (<= D S))))
        (a!6 (not (and (not (= U 0)) (Proc11 S R Q I B P A)))))
  (let ((a!3 (or (not (and (= N S) (= M R)))
                 (not (Proc3 N M Q I P 0))
                 (not (= L N))
                 (not (and (= K O) (= J M)))
                 a!2))
        (a!5 (or (not (= E S))
                 (not a!4)
                 (not (Proc4 D R Q I E C))
                 (not (and (= N D) (= M C)))
                 (not (Proc3 N M Q I P 0))
                 (not (= L N))
                 (not (and (= K O) (= J M)))
                 a!2))
        (a!7 (or (not (<= 0 O))
                 (not (Proc10 S R Q I P))
                 (= U 0)
                 a!6
                 (not (= L S))
                 (not (and (= K A) (= J R)))
                 a!2)))
  (let ((a!8 (or (not I)
                 (= V 0)
                 a!1
                 (and (or (<= 0 O) (= P 0) (and a!3 a!5)) a!7))))
    (=> (not a!8) (Proc6 S R Q I V P H G F)))))))
(assert (forall ((A Int)
         (B Int)
         (C Int)
         (D Int)
         (E Int)
         (F Int)
         (G Int)
         (H Int)
         (I Bool)
         (J Int))
  (let ((a!1 (or (not (= H (- 1073741802))) (not (= G H))))
        (a!2 (or (not (Proc12 F E D I C 0 0 B))
                 (not (= H (- 1073741802)))
                 (not (= G H)))))
    (=> (not (or (not I) (= J 0) (and a!1 a!2))) (Proc13 F E D I A J C G)))))
(assert (forall ((A Int) (B Int) (C Int) (D Int) (E Int) (F Int) (I Bool))
  (let ((a!1 (not (or (not I) (= F 0) (not (= E 259))))))
    (=> a!1 (Proc14 D C B I A F E)))))
(assert (forall ((A Int)
         (B Int)
         (C Int)
         (D Int)
         (E Int)
         (F Int)
         (G Int)
         (H Int)
         (I Bool))
  (let ((a!1 (not (or (not I) (not (= H G))))))
    (=> a!1 (Proc12 F E D I C B A H)))))
(assert (forall ((A Int)
         (B Int)
         (C Int)
         (D Int)
         (E Int)
         (F Int)
         (G Int)
         (H Int)
         (I Bool)
         (J Int))
  (let ((a!1 (and (not (<= G (+ 1 J))) (not (<= G H)))))
  (let ((a!2 (or (not I)
                 (not (= J H))
                 (not a!1)
                 (not (Proc15 G F E I J D))
                 (not (and (= C G) (= B D))))))
    (=> (not a!2) (Proc16 H F E I A C B))))))
(assert (forall ((A Int)
         (B Int)
         (C Int)
         (D Int)
         (E Int)
         (F Int)
         (G Int)
         (H Int)
         (I Bool)
         (J Int))
  (let ((a!1 (and (not (<= G (+ 1 J))) (not (<= G H)))))
  (let ((a!2 (or (not I)
                 (not (= J H))
                 (not a!1)
                 (not (Proc15 G F E I J D))
                 (not (and (= C G) (= B D))))))
    (=> (not a!2) (Proc17 H F E I A C B))))))
(assert (forall ((A Int) (B Int) (C Int) (D Int) (E Int) (I Bool))
  (let ((a!1 (not (or (not I) (not (= E 1))))))
    (=> a!1 (Proc15 D C B I A E)))))
(assert (forall ((A Int)
         (B Int)
         (C Int)
         (D Int)
         (E Int)
         (F Int)
         (G Int)
         (H Int)
         (I Bool)
         (J Int)
         (K Int))
  (let ((a!1 (or (not (= E 1))
                 (not (and (= D F) (= C E)))
                 (not (and (= B D) (= A C)))))
        (a!2 (or (= E 1)
                 (not (and (= D F) (= C E)))
                 (not (and (= B D) (= A C)))))
        (a!3 (or (not (= K 0))
                 (not (and (= D J) (= C H)))
                 (not (and (= B D) (= A C))))))
  (let ((a!4 (and (or (= K 0) (not (Proc16 J K H I G F E)) (and a!1 a!2)) a!3)))
    (=> (not (or (not I) a!4)) (Proc18 J K H I G B A))))))
(assert (forall ((A Int)
         (B Int)
         (C Int)
         (D Int)
         (E Int)
         (F Int)
         (G Int)
         (H Int)
         (I Bool)
         (J Int)
         (K Int))
  (let ((a!1 (or (not (= E 1))
                 (not (and (= D F) (= C E)))
                 (not (and (= B D) (= A C)))))
        (a!2 (or (= E 1)
                 (not (and (= D F) (= C E)))
                 (not (and (= B D) (= A C)))))
        (a!3 (or (not (= K 0))
                 (not (and (= D J) (= C H)))
                 (not (and (= B D) (= A C))))))
  (let ((a!4 (and (or (= K 0) (not (Proc17 J K H I G F E)) (and a!1 a!2)) a!3)))
    (=> (not (or (not I) a!4)) (Proc7 J K H I G B A))))))
(assert (forall ((A Int) (B Int) (C Int) (D Int) (E Int) (I Bool))
  (let ((a!1 (not (or (not I) (not (= E 0))))))
    (=> a!1 (Proc4 D C B I A E)))))
(assert (forall ((A Int) (B Int) (C Int) (I Bool)) (=> I (Proc19 C B A I))))
(assert (forall ((A Int) (B Int) (C Int) (I Bool)) (=> I (Proc20 C B A I))))
(assert (forall ((A Int) (B Int) (C Int) (D Int) (E Int) (I Bool))
  (let ((a!1 (or (not I) (not (and (= E 0) (= D 0))))))
    (=> (not a!1) (Proc21 C B A I E D)))))
(assert (forall ((A Int)
         (B Int)
         (C Int)
         (D Int)
         (E Int)
         (F Int)
         (G Int)
         (H Int)
         (I Bool)
         (J Int)
         (K Int)
         (L Int)
         (M Int)
         (N Int)
         (O Int)
         (P Int)
         (Q Int)
         (G1 Bool)
         (H1 Bool)
         (I1 Bool))
  (let ((a!1 (not (and (not (<= Q 0)) (Proc22 Q P O I1 N))))
        (a!2 (not (and (= E G) (= D J) (= C H) (= G1 H1) (= B K)))))
  (let ((a!3 (or (= H 0) (not (and (= G F) (not H1))) a!2))
        (a!4 (or (not (and (= H 0) (= I I1))) (not (and (= G A) (= H1 I))) a!2)))
  (let ((a!5 (and (or (= H 1) (and a!3 a!4)) (or (not (= H 1)) (and a!3 a!4)))))
  (let ((a!6 (not (or (not I1)
                      a!1
                      (not (Proc21 N P O I1 M L))
                      (not (Proc20 N M L I1))
                      (not (Proc19 N M L I1))
                      (not (Proc23 N M L I1 K J H))
                      a!5))))
    (=> a!6 (Proc24 Q P O I1 E D C G1 B))))))))
(assert (forall ((A Int) (B Int) (C Int) (D Int) (I Bool))
  (let ((a!1 (not (or (not I) (not (= D 1))))))
    (=> a!1 (Proc25 C B A I D)))))
(assert (forall ((A Int) (B Int) (C Int) (D Int) (I Bool))
  (let ((a!1 (not (or (not I) (not (= D 0))))))
    (=> a!1 (Proc26 C B A I D)))))
(assert (forall ((A Int) (B Int) (C Int) (D Int) (I Bool))
  (let ((a!1 (not (or (not I) (not (= D 1))))))
    (=> a!1 (Proc27 C B A I D)))))
(assert (forall ((A Int) (B Int) (C Int) (D Int) (I Bool))
  (let ((a!1 (not (or (not I) (not (= D 0))))))
    (=> a!1 (Proc28 C B A I D)))))
(assert (forall ((A Int) (B Int) (C Int) (D Int) (I Bool))
  (let ((a!1 (not (or (not I) (not (= D 1))))))
    (=> a!1 (Proc29 C B A I D)))))
(assert (forall ((A Int) (B Int) (C Int) (D Int) (I Bool))
  (let ((a!1 (not (or (not I) (not (= D 0))))))
    (=> a!1 (Proc30 C B A I D)))))
(assert (forall ((A Int) (B Int) (C Int) (D Int) (I Bool))
  (let ((a!1 (not (or (not I) (not (= D 1))))))
    (=> a!1 (Proc31 C B A I D)))))
(assert (forall ((A Int) (B Int) (C Int) (D Int) (I Bool))
  (let ((a!1 (not (or (not I) (not (= D 1))))))
    (=> a!1 (Proc32 C B A I D)))))
(assert (forall ((A Int) (B Int) (C Int) (D Int) (I Bool))
  (let ((a!1 (not (or (not I) (not (= D 0))))))
    (=> a!1 (Proc33 C B A I D)))))
(assert (forall ((A Int) (B Int) (C Int) (D Int) (I Bool))
  (let ((a!1 (not (or (not I) (not (= D 0))))))
    (=> a!1 (Proc34 C B A I D)))))
(assert (forall ((A Int) (B Int) (C Int) (D Int) (I Bool))
  (let ((a!1 (not (or (not I) (not (= D 0))))))
    (=> a!1 (Proc35 C B A I D)))))
(assert (forall ((A Int) (B Int) (C Int) (D Int) (E Int) (I Bool))
  (let ((a!1 (or (not I) (not (= E (- 1073741823))) (not (= D E)))))
    (=> (not a!1) (Proc36 C B A I D)))))
(assert (forall ((A Int)
         (B Int)
         (C Int)
         (D Int)
         (E Int)
         (F Int)
         (G Int)
         (H Int)
         (I Bool)
         (J Int))
  (let ((a!1 (not (and (= J (- 1073741738)) (= H J))))
        (a!2 (not (and (= F (- 1073741823)) (= H F)))))
  (let ((a!3 (and (or a!1 (not (= G H)))
                  (or (not (= H 0)) (not (= G H)))
                  (or a!2 (not (= G H))))))
    (=> (not (or (not I) a!3)) (Proc9 E D C I B A G))))))
(assert (forall ((A Int) (B Int) (C Int) (D Int) (E Int) (F Int) (G Int) (I Bool))
  (let ((a!1 (not (or (not I) (not (Proc14 G F E I D C B)) (not (= A B))))))
    (=> a!1 (Proc11 G F E I D C A)))))
(assert (forall ((A Int) (B Int) (C Int) (D Int) (E Int) (I Bool))
  (=> I (Proc3 E D C I B A))))
(assert (forall ((A Int) (B Int) (C Int) (D Int) (I Bool))
  (let ((a!1 (not (or (not I) (not (= D 1))))))
    (=> a!1 (Proc37 C B A I D)))))
(assert (forall ((A Int) (B Int) (C Int) (D Int) (E Int) (F Int) (I Bool))
  (let ((a!1 (not (or (not I) (= F 0) (not (= E D))))))
    (=> a!1 (Proc5 C B A I F E)))))
(assert (forall ((A Int) (B Int) (C Int) (D Int) (I Bool)) (=> I (Proc0 D C B I A))))
(assert (forall ((A Int) (B Int) (C Int) (D Int) (I Bool)) (=> I (Proc10 D C B I A))))
(assert (forall ((A Int)
         (B Int)
         (C Int)
         (D Int)
         (E Int)
         (F Int)
         (G Int)
         (H Int)
         (I Bool)
         (J Int)
         (K Int)
         (L Int)
         (M Int)
         (N Int)
         (O Int)
         (P Int)
         (Q Int)
         (R Int)
         (S Int)
         (T Int)
         (U Int)
         (V Int)
         (W Int)
         (X Int)
         (Y Int)
         (Z Int)
         (A1 Int)
         (B1 Int)
         (C1 Int)
         (D1 Int)
         (E1 Int))
  (let ((a!1 (not (and (= P S) (= O Q) (= N U) (= M T))))
        (a!3 (not (and (= U K) (= T J) (= S L) (= Q H))))
        (a!5 (and (not (<= F (+ 1 G))) (not (<= F X)))))
  (let ((a!2 (or (not (= V 1)) (not (and (= U W) (= T V) (= S R) (= Q X))) a!1))
        (a!4 (or (not (and (= L Y) (= K W) (= J V) (= H X)))
                 (not (Proc40 H K J I L E1))
                 (= E1 0)
                 a!3
                 a!1))
        (a!6 (or (not (= D 1)) (not (and (= U W) (= T D) (= S R) (= Q E))) a!1))
        (a!7 (or (= D 1)
                 (not (and (= L Y) (= K W) (= J D) (= H E)))
                 (not (Proc40 H K J I L E1))
                 (= E1 0)
                 a!3
                 a!1))
        (a!10 (or (not (Proc36 D1 C1 B1 I C))
                  (not (and (= L C) (= K C1) (= J B1) (= H D1)))
                  (not (Proc40 H K J I L E1))
                  (= E1 0)
                  a!3
                  a!1))
        (a!11 (or (not (Proc36 D1 C1 B1 I B))
                  (not (and (= L B) (= K C1) (= J B1) (= H D1)))
                  (not (Proc40 H K J I L E1))
                  (= E1 0)
                  a!3
                  a!1))
        (a!12 (or (= A1 0)
                  (not (Proc36 D1 C1 B1 I A))
                  (not (and (= L A) (= K C1) (= J B1) (= H D1)))
                  (not (Proc40 H K J I L E1))
                  (= E1 0)
                  a!3
                  a!1)))
  (let ((a!8 (and a!4
                  (or (not (= G X))
                      (not a!5)
                      (not (Proc18 F W V I G E D))
                      (and a!6 a!7)))))
  (let ((a!9 (or (= A1 0)
                 (not (Proc8 D1 C1 B1 I Z E1 Y X W V))
                 (and a!2 (or (= V 1) a!8)))))
  (let ((a!13 (not (or (not I)
                       (= E1 0)
                       (not (Proc38 D1 C1 B1 I E1))
                       (= A1 0)
                       (not (Proc39 D1 C1 B1 I))
                       (and a!9 a!10 a!11 a!12)))))
    (=> a!13 (Proc41 D1 C1 B1 I Z E1 P O N M)))))))))
(assert (forall ((A Int) (B Int) (C Int) (D Int) (E Int) (F Int) (I Bool))
  (let ((a!1 (not (or (not I)
                      (not (Proc42 F E D I))
                      (not (Proc36 F E D I C))
                      (not (Proc43 F E D I))))))
    (=> a!1 (Proc44 F E D I B A)))))
(assert (forall ((A Int) (B Int) (C Int) (D Int) (I Bool))
  (=> (not (or (not I) (= D 0))) (Proc38 C B A I D))))
(assert (forall ((A Int) (B Int) (C Int) (I Bool)) (=> I (Proc2 C B A I))))
(assert (forall ((A Int)
         (B Int)
         (C Int)
         (D Int)
         (E Int)
         (F Int)
         (G Int)
         (H Int)
         (I Bool)
         (J Int)
         (K Int)
         (L Int)
         (M Int)
         (N Int)
         (O Int)
         (P Int)
         (Q Int)
         (R Int)
         (S Int)
         (T Int)
         (U Int)
         (V Int)
         (W Int)
         (X Int)
         (Y Int)
         (Z Int)
         (A1 Int)
         (B1 Int)
         (C1 Int)
         (D1 Int)
         (E1 Int)
         (F1 Int)
         (J1 Int)
         (K1 Int)
         (L1 Int)
         (M1 Int)
         (N1 Int)
         (O1 Int))
  (let ((a!1 (not (and (= N P) (= M O) (= L Q))))
        (a!3 (not (and (not (= R 1)) (= Q R) (= P T) (= O S)))))
  (let ((a!2 (or (not (and (= R 1) (= Q R) (= P T) (= O S))) a!1))
        (a!4 (or (not (and (= L1 0) (= Q M1) (= P O1) (= O N1))) a!1))
        (a!5 (or (= K1 0)
                 (not (Proc45 O1 N1 M1 I))
                 (not (and (Proc44 O1 N1 M1 I K J) (= Q M1) (= P O1) (= O N1)))
                 a!1))
        (a!6 (or (not (and (= K1 0) (= Q M1) (= P O1) (= O N1))) a!1))
        (a!7 (or (not (= Q M1)) (not (and (= P O1) (= O N1))) a!1))
        (a!8 (or (not (Proc1 O1 N1 M1 I H G F E))
                 (not (= Q M1))
                 (not (and (= P O1) (= O N1)))
                 a!1))
        (a!9 (or (not (Proc13 O1 N1 M1 I D C B A))
                 (not (= Q M1))
                 (not (and (= P O1) (= O N1)))
                 a!1)))
  (let ((a!10 (and (or (= L1 0)
                       (not (Proc45 O1 N1 M1 I))
                       (not (Proc41 O1 N1 M1 I W V U T S R))
                       (and a!2 (or a!3 a!1)))
                   a!4
                   a!5
                   a!6
                   a!7
                   a!8
                   a!9)))
  (let ((a!11 (not (or (not I)
                       (not (Proc27 O1 N1 M1 I L1))
                       (not (Proc34 O1 N1 M1 I K1))
                       (not (Proc28 O1 N1 M1 I J1))
                       (not (Proc33 O1 N1 M1 I F1))
                       (not (Proc26 O1 N1 M1 I E1))
                       (not (Proc30 O1 N1 M1 I D1))
                       (not (Proc37 O1 N1 M1 I C1))
                       (not (Proc35 O1 N1 M1 I B1))
                       (not (Proc25 O1 N1 M1 I A1))
                       (not (Proc31 O1 N1 M1 I Z))
                       (not (Proc32 O1 N1 M1 I Y))
                       (not (Proc29 O1 N1 M1 I X))
                       a!10))))
    (=> a!11 (Proc23 O1 N1 M1 I N M L))))))))
(assert (forall ((A Int) (B Int) (C Int) (I Bool)) (=> I (Proc39 C B A I))))
(assert (forall ((A Int) (B Int) (C Int) (D Int) (E Int) (I Bool))
  (=> I (Proc40 E D C I B A))))
(assert (forall ((A Int) (B Int) (C Int) (I Bool)) (=> I (Proc45 C B A I))))
(assert (forall ((A Int) (B Int) (C Int) (I Bool)) (=> I (Proc42 C B A I))))
(assert (forall ((A Int) (B Int) (C Int) (I Bool)) (=> I (Proc43 C B A I))))
(assert (forall ((A Int)
         (B Int)
         (C Int)
         (D Int)
         (E Int)
         (F Int)
         (G Int)
         (H Int)
         (I Bool)
         (J Int)
         (K Int)
         (L Int)
         (M Int)
         (N Int)
         (O Int)
         (P Int)
         (Q Int)
         (R Int)
         (S Int)
         (T Int)
         (U Int)
         (V Int)
         (W Int)
         (X Int)
         (Y Int)
         (Z Int)
         (A1 Int)
         (B1 Int)
         (C1 Int)
         (D1 Int)
         (E1 Int)
         (F1 Int)
         (J1 Int)
         (K1 Int)
         (L1 Int)
         (M1 Int)
         (N1 Int)
         (O1 Int)
         (P1 Int)
         (Q1 Int)
         (R1 Int)
         (S1 Int)
         (T1 Int)
         (U1 Int)
         (V1 Int)
         (W1 Int)
         (X1 Int)
         (Y1 Int)
         (Z1 Int)
         (A2 Int)
         (B2 Int)
         (C2 Int)
         (D2 Int)
         (E2 Int)
         (F2 Int)
         (G2 Int)
         (H2 Int)
         (I2 Int)
         (J2 Int))
  (let ((a!1 (and (not (<= H2 (+ 16 J2)))
                  (not (<= H2 I2))
                  (= G2 H2)
                  (not (<= F2 (+ 240 G2)))
                  (not (<= F2 H2))
                  (= E2 F2)
                  (not (<= D2 (+ 4 E2)))
                  (not (<= D2 F2))
                  (= C2 D2)
                  (not (<= B2 (+ 332 C2)))
                  (not (<= B2 D2))
                  (= A2 B2)
                  (not (<= Z1 (+ 4 A2)))
                  (not (<= Z1 B2))
                  (= Y1 Z1)
                  (not (<= X1 (+ 536 Y1)))))
        (a!2 (and (not (<= X1 Z1))
                  (= W1 X1)
                  (not (<= V1 (+ 240 W1)))
                  (not (<= V1 X1))
                  (= U1 V1)
                  (not (<= T1 (+ 240 U1)))
                  (not (<= T1 V1))
                  (= S1 T1)
                  (not (<= R1 (+ 536 S1)))
                  (not (<= R1 T1))
                  (= Q1 R1)
                  (not (<= P1 (+ 240 Q1)))
                  (not (<= P1 R1))
                  (= O1 P1)
                  (not (<= N1 (+ 4 O1)))
                  (not (<= N1 P1))
                  (= M1 N1)
                  (not (<= L1 (+ 536 M1)))
                  (not (<= L1 N1))
                  (= K1 L1)
                  (not (<= J1 (+ 332 K1)))
                  (not (<= J1 L1))
                  (= F1 J1)
                  (not (<= E1 (+ 240 F1)))
                  (not (<= E1 J1))
                  (= D1 E1)
                  (not (<= C1 (+ 240 D1)))
                  (not (<= C1 E1))
                  (= B1 C1)
                  (not (<= A1 (+ 332 B1)))
                  (not (<= A1 C1))
                  (= Z A1)
                  (not (<= Y (+ 4 Z)))
                  (not (<= Y A1))
                  (= X Y)
                  (not (<= W (+ 536 X)))
                  (not (<= W Y))
                  (= V W)
                  (not (<= U (+ 240 V)))
                  (not (<= U W))
                  (= T U)
                  (not (<= S (+ 240 T)))
                  (not (<= S U))
                  (= R S)
                  (not (<= Q (+ 240 R)))
                  (not (<= Q S))
                  (= P Q)
                  (not (<= O (+ 240 P)))
                  (not (<= O Q))
                  (= N O)
                  (not (<= M (+ 240 N)))
                  (not (<= M O))
                  (= L M)
                  (not (<= K (+ 40 L)))
                  (not (<= K M))
                  (= J K)
                  (not (<= H (+ 332 J)))
                  (not (<= H K))
                  (= G H)
                  (not (<= F (+ 4 G)))
                  (not (<= F H))
                  (= E F)
                  (not (<= D (+ 40 E)))
                  (not (<= D F)))))
  (let ((a!3 (not (or (not I) (not (= J2 I2)) (not a!1) (not a!2) (not (= C D))))))
    (=> a!3 (Proc22 I2 B A I C))))))
(assert (forall ((A Int)
         (B Int)
         (C Int)
         (D Int)
         (E Int)
         (F Int)
         (G Int)
         (H Int)
         (I Bool)
         (J Int)
         (K Int)
         (L Int)
         (G1 Bool)
         (H1 Bool))
  (let ((a!1 (or (not H1) (not (and (Proc24 L K J true H G F G1 E) (not G1))))))
    (=> (not a!1) (Proc46 L K J H1 D I C B A)))))
(assert (let ((a!1 (exists ((V0 Int)
                    (V1 Int)
                    (V2 Int)
                    (V3 Bool)
                    (V4 Int)
                    (V5 Bool)
                    (V6 Int)
                    (V7 Int)
                    (V8 Int))
             (not (=> (and (Proc46 V0 V1 V2 V3 V4 V5 V6 V7 V8) (not false))
                      false)))))
  (not a!1)))

(check-sat)
